sat
(:max-memory         18.24
 :memory             18.14
 :nlsat-conflicts    1
 :nlsat-propagations 15
 :nlsat-stages       5
 :num-allocs         39131
 :rlimit-count       8517
 :time               0.00
 :total-time         0.01)
